src/asp/benchmarks/medium10.lp
citta(orvieto).
citta(foligno).
citta(terni).
citta(corciano).
citta(marsciano).
citta(narni).

richiesta(orvieto, strade, 44).
richiesta(orvieto, fiumi, 20).
richiesta(orvieto, scuole, 1).
richiesta(orvieto, parchi, 18).
richiesta(orvieto, energia, 3).

richiesta(foligno, strade, 55).
richiesta(foligno, fiumi, 27).
richiesta(foligno, scuole, 149).
richiesta(foligno, parchi, 64).
richiesta(foligno, energia, 93).

richiesta(terni, strade, 6).
richiesta(terni, fiumi, 9).
richiesta(terni, scuole, 10).
richiesta(terni, parchi, 26).
richiesta(terni, energia, 26).

richiesta(corciano, strade, 39).
richiesta(corciano, fiumi, 7).
richiesta(corciano, scuole, 14).
richiesta(corciano, parchi, 14).
richiesta(corciano, energia, 8).

richiesta(marsciano, strade, 29).
richiesta(marsciano, fiumi, 8).
richiesta(marsciano, scuole, 150).
richiesta(marsciano, parchi, 32).
richiesta(marsciano, energia, 18).

richiesta(narni, strade, 34).
richiesta(narni, fiumi, 43).
richiesta(narni, scuole, 12).
richiesta(narni, parchi, 22).
richiesta(narni, energia, 4).

